p cnf 388 1680
-1 -3 -25 0
-1 3 25 0
1 -3 25 0
1 3 -25 0
1 -2 -3 -4 26 0
1 -2 -3 4 -26 0
1 2 -3 -4 -26 0
1 2 -3 4 26 0
-1 -2 -4 -26 0
-1 -2 4 26 0
-1 2 -4 26 0
-1 2 4 -26 0
-2 3 -4 -26 0
-2 3 4 26 0
2 3 -4 26 0
2 3 4 -26 0
25 26 27 0
-25 -27 0
-26 -27 0
25 -26 28 0
-25 -28 0
26 -28 0
-25 26 29 0
25 -29 0
-26 -29 0
-25 -26 30 0
25 -30 0
26 -30 0
-13 -15 -31 0
-13 15 31 0
13 -15 31 0
13 15 -31 0
13 -14 -15 -16 32 0
13 -14 -15 16 -32 0
13 14 -15 -16 -32 0
13 14 -15 16 32 0
-13 -14 -16 -32 0
-13 -14 16 32 0
-13 14 -16 32 0
-13 14 16 -32 0
-14 15 -16 -32 0
-14 15 16 32 0
14 15 -16 32 0
14 15 16 -32 0
31 32 33 0
-31 -33 0
-32 -33 0
31 -32 34 0
-31 -34 0
32 -34 0
-31 32 35 0
31 -35 0
-32 -35 0
-31 -32 36 0
31 -36 0
32 -36 0
-1 -5 -37 0
-1 5 37 0
1 -5 37 0
1 5 -37 0
1 -2 -5 -6 38 0
1 -2 -5 6 -38 0
1 2 -5 -6 -38 0
1 2 -5 6 38 0
-1 -2 -6 -38 0
-1 -2 6 38 0
-1 2 -6 38 0
-1 2 6 -38 0
-2 5 -6 -38 0
-2 5 6 38 0
2 5 -6 38 0
2 5 6 -38 0
37 38 39 0
-37 -39 0
-38 -39 0
37 -38 40 0
-37 -40 0
38 -40 0
-37 38 41 0
37 -41 0
-38 -41 0
-37 -38 42 0
37 -42 0
38 -42 0
-13 -17 -43 0
-13 17 43 0
13 -17 43 0
13 17 -43 0
13 -14 -17 -18 44 0
13 -14 -17 18 -44 0
13 14 -17 -18 -44 0
13 14 -17 18 44 0
-13 -14 -18 -44 0
-13 -14 18 44 0
-13 14 -18 44 0
-13 14 18 -44 0
-14 17 -18 -44 0
-14 17 18 44 0
14 17 -18 44 0
14 17 18 -44 0
43 44 45 0
-43 -45 0
-44 -45 0
43 -44 46 0
-43 -46 0
44 -46 0
-43 44 47 0
43 -47 0
-44 -47 0
-43 -44 48 0
43 -48 0
44 -48 0
-1 -7 -49 0
-1 7 49 0
1 -7 49 0
1 7 -49 0
1 -2 -7 -8 50 0
1 -2 -7 8 -50 0
1 2 -7 -8 -50 0
1 2 -7 8 50 0
-1 -2 -8 -50 0
-1 -2 8 50 0
-1 2 -8 50 0
-1 2 8 -50 0
-2 7 -8 -50 0
-2 7 8 50 0
2 7 -8 50 0
2 7 8 -50 0
49 50 51 0
-49 -51 0
-50 -51 0
49 -50 52 0
-49 -52 0
50 -52 0
-49 50 53 0
49 -53 0
-50 -53 0
-49 -50 54 0
49 -54 0
50 -54 0
-13 -19 -55 0
-13 19 55 0
13 -19 55 0
13 19 -55 0
13 -14 -19 -20 56 0
13 -14 -19 20 -56 0
13 14 -19 -20 -56 0
13 14 -19 20 56 0
-13 -14 -20 -56 0
-13 -14 20 56 0
-13 14 -20 56 0
-13 14 20 -56 0
-14 19 -20 -56 0
-14 19 20 56 0
14 19 -20 56 0
14 19 20 -56 0
55 56 57 0
-55 -57 0
-56 -57 0
55 -56 58 0
-55 -58 0
56 -58 0
-55 56 59 0
55 -59 0
-56 -59 0
-55 -56 60 0
55 -60 0
56 -60 0
-1 -9 -61 0
-1 9 61 0
1 -9 61 0
1 9 -61 0
1 -2 -9 -10 62 0
1 -2 -9 10 -62 0
1 2 -9 -10 -62 0
1 2 -9 10 62 0
-1 -2 -10 -62 0
-1 -2 10 62 0
-1 2 -10 62 0
-1 2 10 -62 0
-2 9 -10 -62 0
-2 9 10 62 0
2 9 -10 62 0
2 9 10 -62 0
61 62 63 0
-61 -63 0
-62 -63 0
61 -62 64 0
-61 -64 0
62 -64 0
-61 62 65 0
61 -65 0
-62 -65 0
-61 -62 66 0
61 -66 0
62 -66 0
-13 -21 -67 0
-13 21 67 0
13 -21 67 0
13 21 -67 0
13 -14 -21 -22 68 0
13 -14 -21 22 -68 0
13 14 -21 -22 -68 0
13 14 -21 22 68 0
-13 -14 -22 -68 0
-13 -14 22 68 0
-13 14 -22 68 0
-13 14 22 -68 0
-14 21 -22 -68 0
-14 21 22 68 0
14 21 -22 68 0
14 21 22 -68 0
67 68 69 0
-67 -69 0
-68 -69 0
67 -68 70 0
-67 -70 0
68 -70 0
-67 68 71 0
67 -71 0
-68 -71 0
-67 -68 72 0
67 -72 0
68 -72 0
-1 -11 -73 0
-1 11 73 0
1 -11 73 0
1 11 -73 0
1 -2 -11 -12 74 0
1 -2 -11 12 -74 0
1 2 -11 -12 -74 0
1 2 -11 12 74 0
-1 -2 -12 -74 0
-1 -2 12 74 0
-1 2 -12 74 0
-1 2 12 -74 0
-2 11 -12 -74 0
-2 11 12 74 0
2 11 -12 74 0
2 11 12 -74 0
73 74 75 0
-73 -75 0
-74 -75 0
73 -74 76 0
-73 -76 0
74 -76 0
-73 74 77 0
73 -77 0
-74 -77 0
-73 -74 78 0
73 -78 0
74 -78 0
-13 -23 -79 0
-13 23 79 0
13 -23 79 0
13 23 -79 0
13 -14 -23 -24 80 0
13 -14 -23 24 -80 0
13 14 -23 -24 -80 0
13 14 -23 24 80 0
-13 -14 -24 -80 0
-13 -14 24 80 0
-13 14 -24 80 0
-13 14 24 -80 0
-14 23 -24 -80 0
-14 23 24 80 0
14 23 -24 80 0
14 23 24 -80 0
79 80 81 0
-79 -81 0
-80 -81 0
79 -80 82 0
-79 -82 0
80 -82 0
-79 80 83 0
79 -83 0
-80 -83 0
-79 -80 84 0
79 -84 0
80 -84 0
-3 -5 -85 0
-3 5 85 0
3 -5 85 0
3 5 -85 0
3 -4 -5 -6 86 0
3 -4 -5 6 -86 0
3 4 -5 -6 -86 0
3 4 -5 6 86 0
-3 -4 -6 -86 0
-3 -4 6 86 0
-3 4 -6 86 0
-3 4 6 -86 0
-4 5 -6 -86 0
-4 5 6 86 0
4 5 -6 86 0
4 5 6 -86 0
85 86 87 0
-85 -87 0
-86 -87 0
85 -86 88 0
-85 -88 0
86 -88 0
-85 86 89 0
85 -89 0
-86 -89 0
-85 -86 90 0
85 -90 0
86 -90 0
-15 -17 -91 0
-15 17 91 0
15 -17 91 0
15 17 -91 0
15 -16 -17 -18 92 0
15 -16 -17 18 -92 0
15 16 -17 -18 -92 0
15 16 -17 18 92 0
-15 -16 -18 -92 0
-15 -16 18 92 0
-15 16 -18 92 0
-15 16 18 -92 0
-16 17 -18 -92 0
-16 17 18 92 0
16 17 -18 92 0
16 17 18 -92 0
91 92 93 0
-91 -93 0
-92 -93 0
91 -92 94 0
-91 -94 0
92 -94 0
-91 92 95 0
91 -95 0
-92 -95 0
-91 -92 96 0
91 -96 0
92 -96 0
-3 -7 -97 0
-3 7 97 0
3 -7 97 0
3 7 -97 0
3 -4 -7 -8 98 0
3 -4 -7 8 -98 0
3 4 -7 -8 -98 0
3 4 -7 8 98 0
-3 -4 -8 -98 0
-3 -4 8 98 0
-3 4 -8 98 0
-3 4 8 -98 0
-4 7 -8 -98 0
-4 7 8 98 0
4 7 -8 98 0
4 7 8 -98 0
97 98 99 0
-97 -99 0
-98 -99 0
97 -98 100 0
-97 -100 0
98 -100 0
-97 98 101 0
97 -101 0
-98 -101 0
-97 -98 102 0
97 -102 0
98 -102 0
-15 -19 -103 0
-15 19 103 0
15 -19 103 0
15 19 -103 0
15 -16 -19 -20 104 0
15 -16 -19 20 -104 0
15 16 -19 -20 -104 0
15 16 -19 20 104 0
-15 -16 -20 -104 0
-15 -16 20 104 0
-15 16 -20 104 0
-15 16 20 -104 0
-16 19 -20 -104 0
-16 19 20 104 0
16 19 -20 104 0
16 19 20 -104 0
103 104 105 0
-103 -105 0
-104 -105 0
103 -104 106 0
-103 -106 0
104 -106 0
-103 104 107 0
103 -107 0
-104 -107 0
-103 -104 108 0
103 -108 0
104 -108 0
-3 -9 -109 0
-3 9 109 0
3 -9 109 0
3 9 -109 0
3 -4 -9 -10 110 0
3 -4 -9 10 -110 0
3 4 -9 -10 -110 0
3 4 -9 10 110 0
-3 -4 -10 -110 0
-3 -4 10 110 0
-3 4 -10 110 0
-3 4 10 -110 0
-4 9 -10 -110 0
-4 9 10 110 0
4 9 -10 110 0
4 9 10 -110 0
109 110 111 0
-109 -111 0
-110 -111 0
109 -110 112 0
-109 -112 0
110 -112 0
-109 110 113 0
109 -113 0
-110 -113 0
-109 -110 114 0
109 -114 0
110 -114 0
-15 -21 -115 0
-15 21 115 0
15 -21 115 0
15 21 -115 0
15 -16 -21 -22 116 0
15 -16 -21 22 -116 0
15 16 -21 -22 -116 0
15 16 -21 22 116 0
-15 -16 -22 -116 0
-15 -16 22 116 0
-15 16 -22 116 0
-15 16 22 -116 0
-16 21 -22 -116 0
-16 21 22 116 0
16 21 -22 116 0
16 21 22 -116 0
115 116 117 0
-115 -117 0
-116 -117 0
115 -116 118 0
-115 -118 0
116 -118 0
-115 116 119 0
115 -119 0
-116 -119 0
-115 -116 120 0
115 -120 0
116 -120 0
-3 -11 -121 0
-3 11 121 0
3 -11 121 0
3 11 -121 0
3 -4 -11 -12 122 0
3 -4 -11 12 -122 0
3 4 -11 -12 -122 0
3 4 -11 12 122 0
-3 -4 -12 -122 0
-3 -4 12 122 0
-3 4 -12 122 0
-3 4 12 -122 0
-4 11 -12 -122 0
-4 11 12 122 0
4 11 -12 122 0
4 11 12 -122 0
121 122 123 0
-121 -123 0
-122 -123 0
121 -122 124 0
-121 -124 0
122 -124 0
-121 122 125 0
121 -125 0
-122 -125 0
-121 -122 126 0
121 -126 0
122 -126 0
-15 -23 -127 0
-15 23 127 0
15 -23 127 0
15 23 -127 0
15 -16 -23 -24 128 0
15 -16 -23 24 -128 0
15 16 -23 -24 -128 0
15 16 -23 24 128 0
-15 -16 -24 -128 0
-15 -16 24 128 0
-15 16 -24 128 0
-15 16 24 -128 0
-16 23 -24 -128 0
-16 23 24 128 0
16 23 -24 128 0
16 23 24 -128 0
127 128 129 0
-127 -129 0
-128 -129 0
127 -128 130 0
-127 -130 0
128 -130 0
-127 128 131 0
127 -131 0
-128 -131 0
-127 -128 132 0
127 -132 0
128 -132 0
-5 -7 -133 0
-5 7 133 0
5 -7 133 0
5 7 -133 0
5 -6 -7 -8 134 0
5 -6 -7 8 -134 0
5 6 -7 -8 -134 0
5 6 -7 8 134 0
-5 -6 -8 -134 0
-5 -6 8 134 0
-5 6 -8 134 0
-5 6 8 -134 0
-6 7 -8 -134 0
-6 7 8 134 0
6 7 -8 134 0
6 7 8 -134 0
133 134 135 0
-133 -135 0
-134 -135 0
133 -134 136 0
-133 -136 0
134 -136 0
-133 134 137 0
133 -137 0
-134 -137 0
-133 -134 138 0
133 -138 0
134 -138 0
-17 -19 -139 0
-17 19 139 0
17 -19 139 0
17 19 -139 0
17 -18 -19 -20 140 0
17 -18 -19 20 -140 0
17 18 -19 -20 -140 0
17 18 -19 20 140 0
-17 -18 -20 -140 0
-17 -18 20 140 0
-17 18 -20 140 0
-17 18 20 -140 0
-18 19 -20 -140 0
-18 19 20 140 0
18 19 -20 140 0
18 19 20 -140 0
139 140 141 0
-139 -141 0
-140 -141 0
139 -140 142 0
-139 -142 0
140 -142 0
-139 140 143 0
139 -143 0
-140 -143 0
-139 -140 144 0
139 -144 0
140 -144 0
-5 -9 -145 0
-5 9 145 0
5 -9 145 0
5 9 -145 0
5 -6 -9 -10 146 0
5 -6 -9 10 -146 0
5 6 -9 -10 -146 0
5 6 -9 10 146 0
-5 -6 -10 -146 0
-5 -6 10 146 0
-5 6 -10 146 0
-5 6 10 -146 0
-6 9 -10 -146 0
-6 9 10 146 0
6 9 -10 146 0
6 9 10 -146 0
145 146 147 0
-145 -147 0
-146 -147 0
145 -146 148 0
-145 -148 0
146 -148 0
-145 146 149 0
145 -149 0
-146 -149 0
-145 -146 150 0
145 -150 0
146 -150 0
-17 -21 -151 0
-17 21 151 0
17 -21 151 0
17 21 -151 0
17 -18 -21 -22 152 0
17 -18 -21 22 -152 0
17 18 -21 -22 -152 0
17 18 -21 22 152 0
-17 -18 -22 -152 0
-17 -18 22 152 0
-17 18 -22 152 0
-17 18 22 -152 0
-18 21 -22 -152 0
-18 21 22 152 0
18 21 -22 152 0
18 21 22 -152 0
151 152 153 0
-151 -153 0
-152 -153 0
151 -152 154 0
-151 -154 0
152 -154 0
-151 152 155 0
151 -155 0
-152 -155 0
-151 -152 156 0
151 -156 0
152 -156 0
-5 -11 -157 0
-5 11 157 0
5 -11 157 0
5 11 -157 0
5 -6 -11 -12 158 0
5 -6 -11 12 -158 0
5 6 -11 -12 -158 0
5 6 -11 12 158 0
-5 -6 -12 -158 0
-5 -6 12 158 0
-5 6 -12 158 0
-5 6 12 -158 0
-6 11 -12 -158 0
-6 11 12 158 0
6 11 -12 158 0
6 11 12 -158 0
157 158 159 0
-157 -159 0
-158 -159 0
157 -158 160 0
-157 -160 0
158 -160 0
-157 158 161 0
157 -161 0
-158 -161 0
-157 -158 162 0
157 -162 0
158 -162 0
-17 -23 -163 0
-17 23 163 0
17 -23 163 0
17 23 -163 0
17 -18 -23 -24 164 0
17 -18 -23 24 -164 0
17 18 -23 -24 -164 0
17 18 -23 24 164 0
-17 -18 -24 -164 0
-17 -18 24 164 0
-17 18 -24 164 0
-17 18 24 -164 0
-18 23 -24 -164 0
-18 23 24 164 0
18 23 -24 164 0
18 23 24 -164 0
163 164 165 0
-163 -165 0
-164 -165 0
163 -164 166 0
-163 -166 0
164 -166 0
-163 164 167 0
163 -167 0
-164 -167 0
-163 -164 168 0
163 -168 0
164 -168 0
-7 -9 -169 0
-7 9 169 0
7 -9 169 0
7 9 -169 0
7 -8 -9 -10 170 0
7 -8 -9 10 -170 0
7 8 -9 -10 -170 0
7 8 -9 10 170 0
-7 -8 -10 -170 0
-7 -8 10 170 0
-7 8 -10 170 0
-7 8 10 -170 0
-8 9 -10 -170 0
-8 9 10 170 0
8 9 -10 170 0
8 9 10 -170 0
169 170 171 0
-169 -171 0
-170 -171 0
169 -170 172 0
-169 -172 0
170 -172 0
-169 170 173 0
169 -173 0
-170 -173 0
-169 -170 174 0
169 -174 0
170 -174 0
-19 -21 -175 0
-19 21 175 0
19 -21 175 0
19 21 -175 0
19 -20 -21 -22 176 0
19 -20 -21 22 -176 0
19 20 -21 -22 -176 0
19 20 -21 22 176 0
-19 -20 -22 -176 0
-19 -20 22 176 0
-19 20 -22 176 0
-19 20 22 -176 0
-20 21 -22 -176 0
-20 21 22 176 0
20 21 -22 176 0
20 21 22 -176 0
175 176 177 0
-175 -177 0
-176 -177 0
175 -176 178 0
-175 -178 0
176 -178 0
-175 176 179 0
175 -179 0
-176 -179 0
-175 -176 180 0
175 -180 0
176 -180 0
-7 -11 -181 0
-7 11 181 0
7 -11 181 0
7 11 -181 0
7 -8 -11 -12 182 0
7 -8 -11 12 -182 0
7 8 -11 -12 -182 0
7 8 -11 12 182 0
-7 -8 -12 -182 0
-7 -8 12 182 0
-7 8 -12 182 0
-7 8 12 -182 0
-8 11 -12 -182 0
-8 11 12 182 0
8 11 -12 182 0
8 11 12 -182 0
181 182 183 0
-181 -183 0
-182 -183 0
181 -182 184 0
-181 -184 0
182 -184 0
-181 182 185 0
181 -185 0
-182 -185 0
-181 -182 186 0
181 -186 0
182 -186 0
-19 -23 -187 0
-19 23 187 0
19 -23 187 0
19 23 -187 0
19 -20 -23 -24 188 0
19 -20 -23 24 -188 0
19 20 -23 -24 -188 0
19 20 -23 24 188 0
-19 -20 -24 -188 0
-19 -20 24 188 0
-19 20 -24 188 0
-19 20 24 -188 0
-20 23 -24 -188 0
-20 23 24 188 0
20 23 -24 188 0
20 23 24 -188 0
187 188 189 0
-187 -189 0
-188 -189 0
187 -188 190 0
-187 -190 0
188 -190 0
-187 188 191 0
187 -191 0
-188 -191 0
-187 -188 192 0
187 -192 0
188 -192 0
-9 -11 -193 0
-9 11 193 0
9 -11 193 0
9 11 -193 0
9 -10 -11 -12 194 0
9 -10 -11 12 -194 0
9 10 -11 -12 -194 0
9 10 -11 12 194 0
-9 -10 -12 -194 0
-9 -10 12 194 0
-9 10 -12 194 0
-9 10 12 -194 0
-10 11 -12 -194 0
-10 11 12 194 0
10 11 -12 194 0
10 11 12 -194 0
193 194 195 0
-193 -195 0
-194 -195 0
193 -194 196 0
-193 -196 0
194 -196 0
-193 194 197 0
193 -197 0
-194 -197 0
-193 -194 198 0
193 -198 0
194 -198 0
-21 -23 -199 0
-21 23 199 0
21 -23 199 0
21 23 -199 0
21 -22 -23 -24 200 0
21 -22 -23 24 -200 0
21 22 -23 -24 -200 0
21 22 -23 24 200 0
-21 -22 -24 -200 0
-21 -22 24 200 0
-21 22 -24 200 0
-21 22 24 -200 0
-22 23 -24 -200 0
-22 23 24 200 0
22 23 -24 200 0
22 23 24 -200 0
199 200 201 0
-199 -201 0
-200 -201 0
199 -200 202 0
-199 -202 0
200 -202 0
-199 200 203 0
199 -203 0
-200 -203 0
-199 -200 204 0
199 -204 0
200 -204 0
75 -205 0
-81 -75 205 0
81 -75 206 0
-81 75 206 0
-205 -206 0
81 75 -206 0
76 -207 0
-82 -76 207 0
82 -76 208 0
-82 76 208 0
-207 -208 0
82 76 -208 0
77 -209 0
-83 -77 209 0
83 -77 210 0
-83 77 210 0
-209 -210 0
83 77 -210 0
78 -211 0
-84 -78 211 0
84 -78 212 0
-84 78 212 0
-211 -212 0
84 78 -212 0
-206 208 0
206 -208 0
-205 207 0
205 -207 0
-210 212 0
210 -212 0
-209 211 0
209 -211 0
-129 123 -69 -214 0
-129 -123 69 -214 0
129 123 -69 214 0
129 -123 69 214 0
129 -213 -214 0
-129 213 214 0
123 69 -213 0
-123 -69 213 0
129 123 69 -214 0
-129 -123 -69 214 0
63 -215 0
-214 -63 215 0
214 -63 216 0
-214 63 216 0
-215 -216 0
214 63 -216 0
213 -217 0
-215 -213 217 0
215 -213 218 0
-215 213 218 0
-217 -218 0
215 213 -218 0
-130 124 -70 -220 0
-130 -124 70 -220 0
130 124 -70 220 0
130 -124 70 220 0
130 -219 -220 0
-130 219 220 0
124 70 -219 0
-124 -70 219 0
130 124 70 -220 0
-130 -124 -70 220 0
64 -221 0
-220 -64 221 0
220 -64 222 0
-220 64 222 0
-221 -222 0
220 64 -222 0
219 -223 0
-221 -219 223 0
221 -219 224 0
-221 219 224 0
-223 -224 0
221 219 -224 0
-131 125 -71 -226 0
-131 -125 71 -226 0
131 125 -71 226 0
131 -125 71 226 0
131 -225 -226 0
-131 225 226 0
125 71 -225 0
-125 -71 225 0
131 125 71 -226 0
-131 -125 -71 226 0
65 -227 0
-226 -65 227 0
226 -65 228 0
-226 65 228 0
-227 -228 0
226 65 -228 0
225 -229 0
-227 -225 229 0
227 -225 230 0
-227 225 230 0
-229 -230 0
227 225 -230 0
-132 126 -72 -232 0
-132 -126 72 -232 0
132 126 -72 232 0
132 -126 72 232 0
132 -231 -232 0
-132 231 232 0
126 72 -231 0
-126 -72 231 0
132 126 72 -232 0
-132 -126 -72 232 0
66 -233 0
-232 -66 233 0
232 -66 234 0
-232 66 234 0
-233 -234 0
232 66 -234 0
231 -235 0
-233 -231 235 0
233 -231 236 0
-233 231 236 0
-235 -236 0
233 231 -236 0
-216 222 0
216 -222 0
-218 224 0
218 -224 0
-217 223 0
217 -223 0
-228 234 0
228 -234 0
-230 236 0
230 -236 0
-229 235 0
229 -235 0
-165 159 -117 -238 0
-165 -159 117 -238 0
165 159 -117 238 0
165 -159 117 238 0
165 -237 -238 0
-165 237 238 0
159 117 -237 0
-159 -117 237 0
165 159 117 -238 0
-165 -159 -117 238 0
-238 111 -57 -240 0
-238 -111 57 -240 0
238 111 -57 240 0
238 -111 57 240 0
238 -239 -240 0
-238 239 240 0
111 57 -239 0
-111 -57 239 0
238 111 57 -240 0
-238 -111 -57 240 0
51 -241 0
-240 -51 241 0
240 -51 242 0
-240 51 242 0
-241 -242 0
240 51 -242 0
-241 239 -237 -244 0
-241 -239 237 -244 0
241 239 -237 244 0
241 -239 237 244 0
241 -243 -244 0
-241 243 244 0
239 237 -243 0
-239 -237 243 0
241 239 237 -244 0
-241 -239 -237 244 0
-166 160 -118 -246 0
-166 -160 118 -246 0
166 160 -118 246 0
166 -160 118 246 0
166 -245 -246 0
-166 245 246 0
160 118 -245 0
-160 -118 245 0
166 160 118 -246 0
-166 -160 -118 246 0
-246 112 -58 -248 0
-246 -112 58 -248 0
246 112 -58 248 0
246 -112 58 248 0
246 -247 -248 0
-246 247 248 0
112 58 -247 0
-112 -58 247 0
246 112 58 -248 0
-246 -112 -58 248 0
52 -249 0
-248 -52 249 0
248 -52 250 0
-248 52 250 0
-249 -250 0
248 52 -250 0
-249 247 -245 -252 0
-249 -247 245 -252 0
249 247 -245 252 0
249 -247 245 252 0
249 -251 -252 0
-249 251 252 0
247 245 -251 0
-247 -245 251 0
249 247 245 -252 0
-249 -247 -245 252 0
-167 161 -119 -254 0
-167 -161 119 -254 0
167 161 -119 254 0
167 -161 119 254 0
167 -253 -254 0
-167 253 254 0
161 119 -253 0
-161 -119 253 0
167 161 119 -254 0
-167 -161 -119 254 0
-254 113 -59 -256 0
-254 -113 59 -256 0
254 113 -59 256 0
254 -113 59 256 0
254 -255 -256 0
-254 255 256 0
113 59 -255 0
-113 -59 255 0
254 113 59 -256 0
-254 -113 -59 256 0
53 -257 0
-256 -53 257 0
256 -53 258 0
-256 53 258 0
-257 -258 0
256 53 -258 0
-257 255 -253 -260 0
-257 -255 253 -260 0
257 255 -253 260 0
257 -255 253 260 0
257 -259 -260 0
-257 259 260 0
255 253 -259 0
-255 -253 259 0
257 255 253 -260 0
-257 -255 -253 260 0
-168 162 -120 -262 0
-168 -162 120 -262 0
168 162 -120 262 0
168 -162 120 262 0
168 -261 -262 0
-168 261 262 0
162 120 -261 0
-162 -120 261 0
168 162 120 -262 0
-168 -162 -120 262 0
-262 114 -60 -264 0
-262 -114 60 -264 0
262 114 -60 264 0
262 -114 60 264 0
262 -263 -264 0
-262 263 264 0
114 60 -263 0
-114 -60 263 0
262 114 60 -264 0
-262 -114 -60 264 0
54 -265 0
-264 -54 265 0
264 -54 266 0
-264 54 266 0
-265 -266 0
264 54 -266 0
-265 263 -261 -268 0
-265 -263 261 -268 0
265 263 -261 268 0
265 -263 261 268 0
265 -267 -268 0
-265 267 268 0
263 261 -267 0
-263 -261 267 0
265 263 261 -268 0
-265 -263 -261 268 0
-242 250 0
242 -250 0
-244 252 0
244 -252 0
-243 251 0
243 -251 0
-258 266 0
258 -266 0
-260 268 0
260 -268 0
-259 267 0
259 -267 0
-189 183 -153 -270 0
-189 -183 153 -270 0
189 183 -153 270 0
189 -183 153 270 0
189 -269 -270 0
-189 269 270 0
183 153 -269 0
-183 -153 269 0
189 183 153 -270 0
-189 -183 -153 270 0
-270 147 -105 -272 0
-270 -147 105 -272 0
270 147 -105 272 0
270 -147 105 272 0
270 -271 -272 0
-270 271 272 0
147 105 -271 0
-147 -105 271 0
270 147 105 -272 0
-270 -147 -105 272 0
-272 99 -45 -274 0
-272 -99 45 -274 0
272 99 -45 274 0
272 -99 45 274 0
272 -273 -274 0
-272 273 274 0
99 45 -273 0
-99 -45 273 0
272 99 45 -274 0
-272 -99 -45 274 0
39 -275 0
-274 -39 275 0
274 -39 276 0
-274 39 276 0
-275 -276 0
274 39 -276 0
-275 273 -271 -278 0
-275 -273 271 -278 0
275 273 -271 278 0
275 -273 271 278 0
275 -277 -278 0
-275 277 278 0
273 271 -277 0
-273 -271 277 0
275 273 271 -278 0
-275 -273 -271 278 0
269 -279 0
-278 -269 279 0
278 -269 280 0
-278 269 280 0
-279 -280 0
278 269 -280 0
277 -281 0
-279 -277 281 0
279 -277 282 0
-279 277 282 0
-281 -282 0
279 277 -282 0
-190 184 -154 -284 0
-190 -184 154 -284 0
190 184 -154 284 0
190 -184 154 284 0
190 -283 -284 0
-190 283 284 0
184 154 -283 0
-184 -154 283 0
190 184 154 -284 0
-190 -184 -154 284 0
-284 148 -106 -286 0
-284 -148 106 -286 0
284 148 -106 286 0
284 -148 106 286 0
284 -285 -286 0
-284 285 286 0
148 106 -285 0
-148 -106 285 0
284 148 106 -286 0
-284 -148 -106 286 0
-286 100 -46 -288 0
-286 -100 46 -288 0
286 100 -46 288 0
286 -100 46 288 0
286 -287 -288 0
-286 287 288 0
100 46 -287 0
-100 -46 287 0
286 100 46 -288 0
-286 -100 -46 288 0
40 -289 0
-288 -40 289 0
288 -40 290 0
-288 40 290 0
-289 -290 0
288 40 -290 0
-289 287 -285 -292 0
-289 -287 285 -292 0
289 287 -285 292 0
289 -287 285 292 0
289 -291 -292 0
-289 291 292 0
287 285 -291 0
-287 -285 291 0
289 287 285 -292 0
-289 -287 -285 292 0
283 -293 0
-292 -283 293 0
292 -283 294 0
-292 283 294 0
-293 -294 0
292 283 -294 0
291 -295 0
-293 -291 295 0
293 -291 296 0
-293 291 296 0
-295 -296 0
293 291 -296 0
-191 185 -155 -298 0
-191 -185 155 -298 0
191 185 -155 298 0
191 -185 155 298 0
191 -297 -298 0
-191 297 298 0
185 155 -297 0
-185 -155 297 0
191 185 155 -298 0
-191 -185 -155 298 0
-298 149 -107 -300 0
-298 -149 107 -300 0
298 149 -107 300 0
298 -149 107 300 0
298 -299 -300 0
-298 299 300 0
149 107 -299 0
-149 -107 299 0
298 149 107 -300 0
-298 -149 -107 300 0
-300 101 -47 -302 0
-300 -101 47 -302 0
300 101 -47 302 0
300 -101 47 302 0
300 -301 -302 0
-300 301 302 0
101 47 -301 0
-101 -47 301 0
300 101 47 -302 0
-300 -101 -47 302 0
41 -303 0
-302 -41 303 0
302 -41 304 0
-302 41 304 0
-303 -304 0
302 41 -304 0
-303 301 -299 -306 0
-303 -301 299 -306 0
303 301 -299 306 0
303 -301 299 306 0
303 -305 -306 0
-303 305 306 0
301 299 -305 0
-301 -299 305 0
303 301 299 -306 0
-303 -301 -299 306 0
297 -307 0
-306 -297 307 0
306 -297 308 0
-306 297 308 0
-307 -308 0
306 297 -308 0
305 -309 0
-307 -305 309 0
307 -305 310 0
-307 305 310 0
-309 -310 0
307 305 -310 0
-192 186 -156 -312 0
-192 -186 156 -312 0
192 186 -156 312 0
192 -186 156 312 0
192 -311 -312 0
-192 311 312 0
186 156 -311 0
-186 -156 311 0
192 186 156 -312 0
-192 -186 -156 312 0
-312 150 -108 -314 0
-312 -150 108 -314 0
312 150 -108 314 0
312 -150 108 314 0
312 -313 -314 0
-312 313 314 0
150 108 -313 0
-150 -108 313 0
312 150 108 -314 0
-312 -150 -108 314 0
-314 102 -48 -316 0
-314 -102 48 -316 0
314 102 -48 316 0
314 -102 48 316 0
314 -315 -316 0
-314 315 316 0
102 48 -315 0
-102 -48 315 0
314 102 48 -316 0
-314 -102 -48 316 0
42 -317 0
-316 -42 317 0
316 -42 318 0
-316 42 318 0
-317 -318 0
316 42 -318 0
-317 315 -313 -320 0
-317 -315 313 -320 0
317 315 -313 320 0
317 -315 313 320 0
317 -319 -320 0
-317 319 320 0
315 313 -319 0
-315 -313 319 0
317 315 313 -320 0
-317 -315 -313 320 0
311 -321 0
-320 -311 321 0
320 -311 322 0
-320 311 322 0
-321 -322 0
320 311 -322 0
319 -323 0
-321 -319 323 0
321 -319 324 0
-321 319 324 0
-323 -324 0
321 319 -324 0
-276 290 0
276 -290 0
-280 294 0
280 -294 0
-282 296 0
282 -296 0
-281 295 0
281 -295 0
-304 318 0
304 -318 0
-308 322 0
308 -322 0
-310 324 0
310 -324 0
-309 323 0
309 -323 0
-201 195 -177 -326 0
-201 -195 177 -326 0
201 195 -177 326 0
201 -195 177 326 0
201 -325 -326 0
-201 325 326 0
195 177 -325 0
-195 -177 325 0
201 195 177 -326 0
-201 -195 -177 326 0
-326 171 -141 -328 0
-326 -171 141 -328 0
326 171 -141 328 0
326 -171 141 328 0
326 -327 -328 0
-326 327 328 0
171 141 -327 0
-171 -141 327 0
326 171 141 -328 0
-326 -171 -141 328 0
-328 135 -93 -330 0
-328 -135 93 -330 0
328 135 -93 330 0
328 -135 93 330 0
328 -329 -330 0
-328 329 330 0
135 93 -329 0
-135 -93 329 0
328 135 93 -330 0
-328 -135 -93 330 0
-330 87 -33 -332 0
-330 -87 33 -332 0
330 87 -33 332 0
330 -87 33 332 0
330 -331 -332 0
-330 331 332 0
87 33 -331 0
-87 -33 331 0
330 87 33 -332 0
-330 -87 -33 332 0
27 -333 0
-332 -27 333 0
332 -27 334 0
-332 27 334 0
-333 -334 0
332 27 -334 0
-333 331 -329 -336 0
-333 -331 329 -336 0
333 331 -329 336 0
333 -331 329 336 0
333 -335 -336 0
-333 335 336 0
331 329 -335 0
-331 -329 335 0
333 331 329 -336 0
-333 -331 -329 336 0
-336 327 -325 -338 0
-336 -327 325 -338 0
336 327 -325 338 0
336 -327 325 338 0
336 -337 -338 0
-336 337 338 0
327 325 -337 0
-327 -325 337 0
336 327 325 -338 0
-336 -327 -325 338 0
335 -339 0
-337 -335 339 0
337 -335 340 0
-337 335 340 0
-339 -340 0
337 335 -340 0
-202 196 -178 -342 0
-202 -196 178 -342 0
202 196 -178 342 0
202 -196 178 342 0
202 -341 -342 0
-202 341 342 0
196 178 -341 0
-196 -178 341 0
202 196 178 -342 0
-202 -196 -178 342 0
-342 172 -142 -344 0
-342 -172 142 -344 0
342 172 -142 344 0
342 -172 142 344 0
342 -343 -344 0
-342 343 344 0
172 142 -343 0
-172 -142 343 0
342 172 142 -344 0
-342 -172 -142 344 0
-344 136 -94 -346 0
-344 -136 94 -346 0
344 136 -94 346 0
344 -136 94 346 0
344 -345 -346 0
-344 345 346 0
136 94 -345 0
-136 -94 345 0
344 136 94 -346 0
-344 -136 -94 346 0
-346 88 -34 -348 0
-346 -88 34 -348 0
346 88 -34 348 0
346 -88 34 348 0
346 -347 -348 0
-346 347 348 0
88 34 -347 0
-88 -34 347 0
346 88 34 -348 0
-346 -88 -34 348 0
28 -349 0
-348 -28 349 0
348 -28 350 0
-348 28 350 0
-349 -350 0
348 28 -350 0
-349 347 -345 -352 0
-349 -347 345 -352 0
349 347 -345 352 0
349 -347 345 352 0
349 -351 -352 0
-349 351 352 0
347 345 -351 0
-347 -345 351 0
349 347 345 -352 0
-349 -347 -345 352 0
-352 343 -341 -354 0
-352 -343 341 -354 0
352 343 -341 354 0
352 -343 341 354 0
352 -353 -354 0
-352 353 354 0
343 341 -353 0
-343 -341 353 0
352 343 341 -354 0
-352 -343 -341 354 0
351 -355 0
-353 -351 355 0
353 -351 356 0
-353 351 356 0
-355 -356 0
353 351 -356 0
-203 197 -179 -358 0
-203 -197 179 -358 0
203 197 -179 358 0
203 -197 179 358 0
203 -357 -358 0
-203 357 358 0
197 179 -357 0
-197 -179 357 0
203 197 179 -358 0
-203 -197 -179 358 0
-358 173 -143 -360 0
-358 -173 143 -360 0
358 173 -143 360 0
358 -173 143 360 0
358 -359 -360 0
-358 359 360 0
173 143 -359 0
-173 -143 359 0
358 173 143 -360 0
-358 -173 -143 360 0
-360 137 -95 -362 0
-360 -137 95 -362 0
360 137 -95 362 0
360 -137 95 362 0
360 -361 -362 0
-360 361 362 0
137 95 -361 0
-137 -95 361 0
360 137 95 -362 0
-360 -137 -95 362 0
-362 89 -35 -364 0
-362 -89 35 -364 0
362 89 -35 364 0
362 -89 35 364 0
362 -363 -364 0
-362 363 364 0
89 35 -363 0
-89 -35 363 0
362 89 35 -364 0
-362 -89 -35 364 0
29 -365 0
-364 -29 365 0
364 -29 366 0
-364 29 366 0
-365 -366 0
364 29 -366 0
-365 363 -361 -368 0
-365 -363 361 -368 0
365 363 -361 368 0
365 -363 361 368 0
365 -367 -368 0
-365 367 368 0
363 361 -367 0
-363 -361 367 0
365 363 361 -368 0
-365 -363 -361 368 0
-368 359 -357 -370 0
-368 -359 357 -370 0
368 359 -357 370 0
368 -359 357 370 0
368 -369 -370 0
-368 369 370 0
359 357 -369 0
-359 -357 369 0
368 359 357 -370 0
-368 -359 -357 370 0
367 -371 0
-369 -367 371 0
369 -367 372 0
-369 367 372 0
-371 -372 0
369 367 -372 0
-204 198 -180 -374 0
-204 -198 180 -374 0
204 198 -180 374 0
204 -198 180 374 0
204 -373 -374 0
-204 373 374 0
198 180 -373 0
-198 -180 373 0
204 198 180 -374 0
-204 -198 -180 374 0
-374 174 -144 -376 0
-374 -174 144 -376 0
374 174 -144 376 0
374 -174 144 376 0
374 -375 -376 0
-374 375 376 0
174 144 -375 0
-174 -144 375 0
374 174 144 -376 0
-374 -174 -144 376 0
-376 138 -96 -378 0
-376 -138 96 -378 0
376 138 -96 378 0
376 -138 96 378 0
376 -377 -378 0
-376 377 378 0
138 96 -377 0
-138 -96 377 0
376 138 96 -378 0
-376 -138 -96 378 0
-378 90 -36 -380 0
-378 -90 36 -380 0
378 90 -36 380 0
378 -90 36 380 0
378 -379 -380 0
-378 379 380 0
90 36 -379 0
-90 -36 379 0
378 90 36 -380 0
-378 -90 -36 380 0
30 -381 0
-380 -30 381 0
380 -30 382 0
-380 30 382 0
-381 -382 0
380 30 -382 0
-381 379 -377 -384 0
-381 -379 377 -384 0
381 379 -377 384 0
381 -379 377 384 0
381 -383 -384 0
-381 383 384 0
379 377 -383 0
-379 -377 383 0
381 379 377 -384 0
-381 -379 -377 384 0
-384 375 -373 -386 0
-384 -375 373 -386 0
384 375 -373 386 0
384 -375 373 386 0
384 -385 -386 0
-384 385 386 0
375 373 -385 0
-375 -373 385 0
384 375 373 -386 0
-384 -375 -373 386 0
383 -387 0
-385 -383 387 0
385 -383 388 0
-385 383 388 0
-387 -388 0
385 383 -388 0
-334 350 0
334 -350 0
-338 354 0
338 -354 0
-340 356 0
340 -356 0
-339 355 0
339 -355 0
-366 382 0
366 -382 0
-370 386 0
370 -386 0
-372 388 0
372 -388 0
-371 387 0
371 -387 0
